n = 15;
lu = [|-62, -9
      |-37, -24
      |-41, 71
      |-109, 61
      |-221, -89
      |-161, -74
      |-86, 110
      |130, 206
      |-111, 177
      |76, 139
      |-213, -19
      |-92, 57
      |-124, -86
      |-109, 130
      |-69, -35|];
